p cnf 1694
-25 -529
-26 -532
-27 -535
-28 -538
-29 -541
-30 -544
-31 -547
-32 -550
-33 -553
-34 -556
-35 -559
-36 -562
-37 -565
-38 -568
-39 -571
-40 -574
-41 -577
-42 -580
-43 -583
-44 -586
-45 -589
-46 -592
-47 -595
-48 -598
-49 599
-50 600
-51 601
-52 602
-53 603
-54 604
-55 605
-56 606
-57 607
-58 608
-59 609
-60 610
-61 611
-62 -26
-62 -27
26 27 62
-63 -28
-63 -29
28 29 63
-64 -30
-64 -31
30 31 64
-65 -32
-65 -33
32 33 65
-66 -34
-66 -35
34 35 66
-67 -36
-67 -37
36 37 67
-68 -38
-68 -39
38 39 68
-69 -40
-69 -41
40 41 69
-70 -42
-70 -43
42 43 70
-71 -44
-71 -45
44 45 71
-72 -46
-72 -47
46 47 72
-73 -48
-73 -49
48 49 73
-74 -50
-74 -51
50 51 74
-75 -52
-75 -53
52 53 75
-76 -54
-76 -55
54 55 76
-77 -56
-77 -57
56 57 77
-78 -58
-78 -59
58 59 78
-79 -60
-79 -61
60 61 79
-80 62
-80 63
-62 -63 80
-81 64
-81 65
-64 -65 81
-82 66
-82 67
-66 -67 82
-83 68
-83 69
-68 -69 83
-84 70
-84 71
-70 -71 84
-85 72
-85 73
-72 -73 85
-86 74
-86 75
-74 -75 86
-87 76
-87 77
-76 -77 87
-88 78
-88 79
-78 -79 88
-89 80
-89 81
-80 -81 89
-90 82
-90 83
-82 -83 90
-91 84
-91 85
-84 -85 91
-92 86
-92 87
-86 -87 92
-93 89
-93 90
-89 -90 93
-94 91
-94 92
-91 -92 94
-95 93
-95 94
-93 -94 95
-96 88
-96 95
-88 -95 96
-97 -25
-97 26
25 -26 97
-98 25
-98 -26
-25 26 98
-99 -97
-99 -98
97 98 99
-100 25
-100 26
-25 -26 100
-101 -25
-101 -99
25 99 101
-102 25
-102 99
-25 -99 102
-103 -101
-103 -102
101 102 103
-104 25
-104 -99
-25 99 104
-105 -100
-105 -104
100 104 105
-106 -26
-106 27
26 -27 106
-107 26
-107 -27
-26 27 107
-108 -106
-108 -107
106 107 108
-109 26
-109 27
-26 -27 109
-110 105
-110 -108
-105 108 110
-111 -105
-111 108
105 -108 111
-112 -110
-112 -111
110 111 112
-113 -105
-113 -108
105 108 113
-114 -109
-114 -113
109 113 114
-115 -27
-115 28
27 -28 115
-116 27
-116 -28
-27 28 116
-117 -115
-117 -116
115 116 117
-118 27
-118 28
-27 -28 118
-119 114
-119 -117
-114 117 119
-120 -114
-120 117
114 -117 120
-121 -119
-121 -120
119 120 121
-122 -114
-122 -117
114 117 122
-123 -118
-123 -122
118 122 123
-124 -28
-124 29
28 -29 124
-125 28
-125 -29
-28 29 125
-126 -124
-126 -125
124 125 126
-127 28
-127 29
-28 -29 127
-128 123
-128 -126
-123 126 128
-129 -123
-129 126
123 -126 129
-130 -128
-130 -129
128 129 130
-131 -123
-131 -126
123 126 131
-132 -127
-132 -131
127 131 132
-133 -29
-133 30
29 -30 133
-134 29
-134 -30
-29 30 134
-135 -133
-135 -134
133 134 135
-136 29
-136 30
-29 -30 136
-137 132
-137 -135
-132 135 137
-138 -132
-138 135
132 -135 138
-139 -137
-139 -138
137 138 139
-140 -132
-140 -135
132 135 140
-141 -136
-141 -140
136 140 141
-142 -30
-142 31
30 -31 142
-143 30
-143 -31
-30 31 143
-144 -142
-144 -143
142 143 144
-145 30
-145 31
-30 -31 145
-146 141
-146 -144
-141 144 146
-147 -141
-147 144
141 -144 147
-148 -146
-148 -147
146 147 148
-149 -141
-149 -144
141 144 149
-150 -145
-150 -149
145 149 150
-151 -31
-151 32
31 -32 151
-152 31
-152 -32
-31 32 152
-153 -151
-153 -152
151 152 153
-154 31
-154 32
-31 -32 154
-155 150
-155 -153
-150 153 155
-156 -150
-156 153
150 -153 156
-157 -155
-157 -156
155 156 157
-158 -150
-158 -153
150 153 158
-159 -154
-159 -158
154 158 159
-160 -32
-160 33
32 -33 160
-161 32
-161 -33
-32 33 161
-162 -160
-162 -161
160 161 162
-163 32
-163 33
-32 -33 163
-164 159
-164 -162
-159 162 164
-165 -159
-165 162
159 -162 165
-166 -164
-166 -165
164 165 166
-167 -159
-167 -162
159 162 167
-168 -163
-168 -167
163 167 168
-169 -33
-169 34
33 -34 169
-170 33
-170 -34
-33 34 170
-171 -169
-171 -170
169 170 171
-172 33
-172 34
-33 -34 172
-173 168
-173 -171
-168 171 173
-174 -168
-174 171
168 -171 174
-175 -173
-175 -174
173 174 175
-176 -168
-176 -171
168 171 176
-177 -172
-177 -176
172 176 177
-178 -34
-178 35
34 -35 178
-179 34
-179 -35
-34 35 179
-180 -178
-180 -179
178 179 180
-181 34
-181 35
-34 -35 181
-182 177
-182 -180
-177 180 182
-183 -177
-183 180
177 -180 183
-184 -182
-184 -183
182 183 184
-185 -177
-185 -180
177 180 185
-186 -181
-186 -185
181 185 186
-187 -35
-187 36
35 -36 187
-188 35
-188 -36
-35 36 188
-189 -187
-189 -188
187 188 189
-190 35
-190 36
-35 -36 190
-191 186
-191 -189
-186 189 191
-192 -186
-192 189
186 -189 192
-193 -191
-193 -192
191 192 193
-194 -186
-194 -189
186 189 194
-195 -190
-195 -194
190 194 195
-196 -36
-196 37
36 -37 196
-197 36
-197 -37
-36 37 197
-198 -196
-198 -197
196 197 198
-199 36
-199 37
-36 -37 199
-200 195
-200 -198
-195 198 200
-201 -195
-201 198
195 -198 201
-202 -200
-202 -201
200 201 202
-203 -195
-203 -198
195 198 203
-204 -199
-204 -203
199 203 204
-205 -37
-205 38
37 -38 205
-206 37
-206 -38
-37 38 206
-207 -205
-207 -206
205 206 207
-208 37
-208 38
-37 -38 208
-209 204
-209 -207
-204 207 209
-210 -204
-210 207
204 -207 210
-211 -209
-211 -210
209 210 211
-212 -204
-212 -207
204 207 212
-213 -208
-213 -212
208 212 213
-214 -38
-214 39
38 -39 214
-215 38
-215 -39
-38 39 215
-216 -214
-216 -215
214 215 216
-217 38
-217 39
-38 -39 217
-218 213
-218 -216
-213 216 218
-219 -213
-219 216
213 -216 219
-220 -218
-220 -219
218 219 220
-221 -213
-221 -216
213 216 221
-222 -217
-222 -221
217 221 222
-223 -39
-223 40
39 -40 223
-224 39
-224 -40
-39 40 224
-225 -223
-225 -224
223 224 225
-226 39
-226 40
-39 -40 226
-227 222
-227 -225
-222 225 227
-228 -222
-228 225
222 -225 228
-229 -227
-229 -228
227 228 229
-230 -222
-230 -225
222 225 230
-231 -226
-231 -230
226 230 231
-232 -40
-232 41
40 -41 232
-233 40
-233 -41
-40 41 233
-234 -232
-234 -233
232 233 234
-235 40
-235 41
-40 -41 235
-236 231
-236 -234
-231 234 236
-237 -231
-237 234
231 -234 237
-238 -236
-238 -237
236 237 238
-239 -231
-239 -234
231 234 239
-240 -235
-240 -239
235 239 240
-241 -41
-241 42
41 -42 241
-242 41
-242 -42
-41 42 242
-243 -241
-243 -242
241 242 243
-244 41
-244 42
-41 -42 244
-245 240
-245 -243
-240 243 245
-246 -240
-246 243
240 -243 246
-247 -245
-247 -246
245 246 247
-248 -240
-248 -243
240 243 248
-249 -244
-249 -248
244 248 249
-250 -42
-250 43
42 -43 250
-251 42
-251 -43
-42 43 251
-252 -250
-252 -251
250 251 252
-253 42
-253 43
-42 -43 253
-254 249
-254 -252
-249 252 254
-255 -249
-255 252
249 -252 255
-256 -254
-256 -255
254 255 256
-257 -249
-257 -252
249 252 257
-258 -253
-258 -257
253 257 258
-259 -43
-259 44
43 -44 259
-260 43
-260 -44
-43 44 260
-261 -259
-261 -260
259 260 261
-262 43
-262 44
-43 -44 262
-263 258
-263 -261
-258 261 263
-264 -258
-264 261
258 -261 264
-265 -263
-265 -264
263 264 265
-266 -258
-266 -261
258 261 266
-267 -262
-267 -266
262 266 267
-268 -44
-268 45
44 -45 268
-269 44
-269 -45
-44 45 269
-270 -268
-270 -269
268 269 270
-271 44
-271 45
-44 -45 271
-272 267
-272 -270
-267 270 272
-273 -267
-273 270
267 -270 273
-274 -272
-274 -273
272 273 274
-275 -267
-275 -270
267 270 275
-276 -271
-276 -275
271 275 276
-277 -45
-277 46
45 -46 277
-278 45
-278 -46
-45 46 278
-279 -277
-279 -278
277 278 279
-280 45
-280 46
-45 -46 280
-281 276
-281 -279
-276 279 281
-282 -276
-282 279
276 -279 282
-283 -281
-283 -282
281 282 283
-284 -276
-284 -279
276 279 284
-285 -280
-285 -284
280 284 285
-286 -46
-286 47
46 -47 286
-287 46
-287 -47
-46 47 287
-288 -286
-288 -287
286 287 288
-289 46
-289 47
-46 -47 289
-290 285
-290 -288
-285 288 290
-291 -285
-291 288
285 -288 291
-292 -290
-292 -291
290 291 292
-293 -285
-293 -288
285 288 293
-294 -289
-294 -293
289 293 294
-295 -47
-295 48
47 -48 295
-296 47
-296 -48
-47 48 296
-297 -295
-297 -296
295 296 297
-298 47
-298 48
-47 -48 298
-299 294
-299 -297
-294 297 299
-300 -294
-300 297
294 -297 300
-301 -299
-301 -300
299 300 301
-302 -294
-302 -297
294 297 302
-303 -298
-303 -302
298 302 303
-304 -48
-304 49
48 -49 304
-305 48
-305 -49
-48 49 305
-306 -304
-306 -305
304 305 306
-307 48
-307 49
-48 -49 307
-308 303
-308 -306
-303 306 308
-309 -303
-309 306
303 -306 309
-310 -308
-310 -309
308 309 310
-311 -303
-311 -306
303 306 311
-312 -307
-312 -311
307 311 312
-313 -49
-313 50
49 -50 313
-314 49
-314 -50
-49 50 314
-315 -313
-315 -314
313 314 315
-316 49
-316 50
-49 -50 316
-317 312
-317 -315
-312 315 317
-318 -312
-318 315
312 -315 318
-319 -317
-319 -318
317 318 319
-320 -312
-320 -315
312 315 320
-321 -316
-321 -320
316 320 321
-322 -50
-322 51
50 -51 322
-323 50
-323 -51
-50 51 323
-324 -322
-324 -323
322 323 324
-325 50
-325 51
-50 -51 325
-326 321
-326 -324
-321 324 326
-327 -321
-327 324
321 -324 327
-328 -326
-328 -327
326 327 328
-329 -321
-329 -324
321 324 329
-330 -325
-330 -329
325 329 330
-331 -51
-331 52
51 -52 331
-332 51
-332 -52
-51 52 332
-333 -331
-333 -332
331 332 333
-334 51
-334 52
-51 -52 334
-335 330
-335 -333
-330 333 335
-336 -330
-336 333
330 -333 336
-337 -335
-337 -336
335 336 337
-338 -330
-338 -333
330 333 338
-339 -334
-339 -338
334 338 339
-340 -52
-340 53
52 -53 340
-341 52
-341 -53
-52 53 341
-342 -340
-342 -341
340 341 342
-343 52
-343 53
-52 -53 343
-344 339
-344 -342
-339 342 344
-345 -339
-345 342
339 -342 345
-346 -344
-346 -345
344 345 346
-347 -339
-347 -342
339 342 347
-348 -343
-348 -347
343 347 348
-349 -53
-349 54
53 -54 349
-350 53
-350 -54
-53 54 350
-351 -349
-351 -350
349 350 351
-352 53
-352 54
-53 -54 352
-353 348
-353 -351
-348 351 353
-354 -348
-354 351
348 -351 354
-355 -353
-355 -354
353 354 355
-356 -348
-356 -351
348 351 356
-357 -352
-357 -356
352 356 357
-358 -54
-358 55
54 -55 358
-359 54
-359 -55
-54 55 359
-360 -358
-360 -359
358 359 360
-361 54
-361 55
-54 -55 361
-362 357
-362 -360
-357 360 362
-363 -357
-363 360
357 -360 363
-364 -362
-364 -363
362 363 364
-365 -357
-365 -360
357 360 365
-366 -361
-366 -365
361 365 366
-367 -55
-367 56
55 -56 367
-368 55
-368 -56
-55 56 368
-369 -367
-369 -368
367 368 369
-370 55
-370 56
-55 -56 370
-371 366
-371 -369
-366 369 371
-372 -366
-372 369
366 -369 372
-373 -371
-373 -372
371 372 373
-374 -366
-374 -369
366 369 374
-375 -370
-375 -374
370 374 375
-376 -56
-376 57
56 -57 376
-377 56
-377 -57
-56 57 377
-378 -376
-378 -377
376 377 378
-379 56
-379 57
-56 -57 379
-380 375
-380 -378
-375 378 380
-381 -375
-381 378
375 -378 381
-382 -380
-382 -381
380 381 382
-383 -375
-383 -378
375 378 383
-384 -379
-384 -383
379 383 384
-385 -57
-385 58
57 -58 385
-386 57
-386 -58
-57 58 386
-387 -385
-387 -386
385 386 387
-388 57
-388 58
-57 -58 388
-389 384
-389 -387
-384 387 389
-390 -384
-390 387
384 -387 390
-391 -389
-391 -390
389 390 391
-392 -384
-392 -387
384 387 392
-393 -388
-393 -392
388 392 393
-394 -58
-394 59
58 -59 394
-395 58
-395 -59
-58 59 395
-396 -394
-396 -395
394 395 396
-397 58
-397 59
-58 -59 397
-398 393
-398 -396
-393 396 398
-399 -393
-399 396
393 -396 399
-400 -398
-400 -399
398 399 400
-401 -393
-401 -396
393 396 401
-402 -397
-402 -401
397 401 402
-403 -59
-403 60
59 -60 403
-404 59
-404 -60
-59 60 404
-405 -403
-405 -404
403 404 405
-406 59
-406 60
-59 -60 406
-407 402
-407 -405
-402 405 407
-408 -402
-408 405
402 -405 408
-409 -407
-409 -408
407 408 409
-410 -402
-410 -405
402 405 410
-411 -406
-411 -410
406 410 411
-412 -60
-412 61
60 -61 412
-413 60
-413 -61
-60 61 413
-414 -412
-414 -413
412 413 414
-415 60
-415 61
-60 -61 415
-416 411
-416 -414
-411 414 416
-417 -411
-417 414
411 -414 417
-418 -416
-418 -417
416 417 418
-419 -411
-419 -414
411 414 419
-420 -415
-420 -419
415 419 420
-421 25
-421 -103
-25 103 421
-422 -25
-422 27
25 -27 422
-423 -421
-423 -422
421 422 423
-424 25
-424 -112
-25 112 424
-425 -25
-425 28
25 -28 425
-426 -424
-426 -425
424 425 426
-427 25
-427 -121
-25 121 427
-428 -25
-428 29
25 -29 428
-429 -427
-429 -428
427 428 429
-430 25
-430 -130
-25 130 430
-431 -25
-431 30
25 -30 431
-432 -430
-432 -431
430 431 432
-433 25
-433 -139
-25 139 433
-434 -25
-434 31
25 -31 434
-435 -433
-435 -434
433 434 435
-436 25
-436 -148
-25 148 436
-437 -25
-437 32
25 -32 437
-438 -436
-438 -437
436 437 438
-439 25
-439 -157
-25 157 439
-440 -25
-440 33
25 -33 440
-441 -439
-441 -440
439 440 441
-442 25
-442 -166
-25 166 442
-443 -25
-443 34
25 -34 443
-444 -442
-444 -443
442 443 444
-445 25
-445 -175
-25 175 445
-446 -25
-446 35
25 -35 446
-447 -445
-447 -446
445 446 447
-448 25
-448 -184
-25 184 448
-449 -25
-449 36
25 -36 449
-450 -448
-450 -449
448 449 450
-451 25
-451 -193
-25 193 451
-452 -25
-452 37
25 -37 452
-453 -451
-453 -452
451 452 453
-454 25
-454 -202
-25 202 454
-455 -25
-455 38
25 -38 455
-456 -454
-456 -455
454 455 456
-457 25
-457 -211
-25 211 457
-458 -25
-458 39
25 -39 458
-459 -457
-459 -458
457 458 459
-460 25
-460 -220
-25 220 460
-461 -25
-461 40
25 -40 461
-462 -460
-462 -461
460 461 462
-463 25
-463 -229
-25 229 463
-464 -25
-464 41
25 -41 464
-465 -463
-465 -464
463 464 465
-466 25
-466 -238
-25 238 466
-467 -25
-467 42
25 -42 467
-468 -466
-468 -467
466 467 468
-469 25
-469 -247
-25 247 469
-470 -25
-470 43
25 -43 470
-471 -469
-471 -470
469 470 471
-472 25
-472 -256
-25 256 472
-473 -25
-473 44
25 -44 473
-474 -472
-474 -473
472 473 474
-475 25
-475 -265
-25 265 475
-476 -25
-476 45
25 -45 476
-477 -475
-477 -476
475 476 477
-478 25
-478 -274
-25 274 478
-479 -25
-479 46
25 -46 479
-480 -478
-480 -479
478 479 480
-481 25
-481 -283
-25 283 481
-482 -25
-482 47
25 -47 482
-483 -481
-483 -482
481 482 483
-484 25
-484 -292
-25 292 484
-485 -25
-485 48
25 -48 485
-486 -484
-486 -485
484 485 486
-487 25
-487 -301
-25 301 487
-488 -25
-488 49
25 -49 488
-489 -487
-489 -488
487 488 489
-490 25
-490 -310
-25 310 490
-491 -25
-491 50
25 -50 491
-492 -490
-492 -491
490 491 492
-493 25
-493 -319
-25 319 493
-494 -25
-494 51
25 -51 494
-495 -493
-495 -494
493 494 495
-496 25
-496 -328
-25 328 496
-497 -25
-497 52
25 -52 497
-498 -496
-498 -497
496 497 498
-499 25
-499 -337
-25 337 499
-500 -25
-500 53
25 -53 500
-501 -499
-501 -500
499 500 501
-502 25
-502 -346
-25 346 502
-503 -25
-503 54
25 -54 503
-504 -502
-504 -503
502 503 504
-505 25
-505 -355
-25 355 505
-506 -25
-506 55
25 -55 506
-507 -505
-507 -506
505 506 507
-508 25
-508 -364
-25 364 508
-509 -25
-509 56
25 -56 509
-510 -508
-510 -509
508 509 510
-511 25
-511 -373
-25 373 511
-512 -25
-512 57
25 -57 512
-513 -511
-513 -512
511 512 513
-514 25
-514 -382
-25 382 514
-515 -25
-515 58
25 -58 515
-516 -514
-516 -515
514 515 516
-517 25
-517 -391
-25 391 517
-518 -25
-518 59
25 -59 518
-519 -517
-519 -518
517 518 519
-520 25
-520 -400
-25 400 520
-521 -25
-521 60
25 -60 521
-522 -520
-522 -521
520 521 522
-523 25
-523 -409
-25 409 523
-524 -25
-524 61
25 -61 524
-525 -523
-525 -524
523 524 525
-526 25
-526 -418
-25 418 526
-527 1
-527 96
-1 -96 527
-528 -96
-528 97
96 -97 528
-529 -527
-529 -528
527 528 529
-530 2
-530 96
-2 -96 530
-531 -96
-531 -423
96 423 531
-532 -530
-532 -531
530 531 532
-533 3
-533 96
-3 -96 533
-534 -96
-534 -426
96 426 534
-535 -533
-535 -534
533 534 535
-536 4
-536 96
-4 -96 536
-537 -96
-537 -429
96 429 537
-538 -536
-538 -537
536 537 538
-539 5
-539 96
-5 -96 539
-540 -96
-540 -432
96 432 540
-541 -539
-541 -540
539 540 541
-542 6
-542 96
-6 -96 542
-543 -96
-543 -435
96 435 543
-544 -542
-544 -543
542 543 544
-545 7
-545 96
-7 -96 545
-546 -96
-546 -438
96 438 546
-547 -545
-547 -546
545 546 547
-548 8
-548 96
-8 -96 548
-549 -96
-549 -441
96 441 549
-550 -548
-550 -549
548 549 550
-551 9
-551 96
-9 -96 551
-552 -96
-552 -444
96 444 552
-553 -551
-553 -552
551 552 553
-554 10
-554 96
-10 -96 554
-555 -96
-555 -447
96 447 555
-556 -554
-556 -555
554 555 556
-557 11
-557 96
-11 -96 557
-558 -96
-558 -450
96 450 558
-559 -557
-559 -558
557 558 559
-560 12
-560 96
-12 -96 560
-561 -96
-561 -453
96 453 561
-562 -560
-562 -561
560 561 562
-563 13
-563 96
-13 -96 563
-564 -96
-564 -456
96 456 564
-565 -563
-565 -564
563 564 565
-566 14
-566 96
-14 -96 566
-567 -96
-567 -459
96 459 567
-568 -566
-568 -567
566 567 568
-569 15
-569 96
-15 -96 569
-570 -96
-570 -462
96 462 570
-571 -569
-571 -570
569 570 571
-572 16
-572 96
-16 -96 572
-573 -96
-573 -465
96 465 573
-574 -572
-574 -573
572 573 574
-575 17
-575 96
-17 -96 575
-576 -96
-576 -468
96 468 576
-577 -575
-577 -576
575 576 577
-578 18
-578 96
-18 -96 578
-579 -96
-579 -471
96 471 579
-580 -578
-580 -579
578 579 580
-581 19
-581 96
-19 -96 581
-582 -96
-582 -474
96 474 582
-583 -581
-583 -582
581 582 583
-584 20
-584 96
-20 -96 584
-585 -96
-585 -477
96 477 585
-586 -584
-586 -585
584 585 586
-587 21
-587 96
-21 -96 587
-588 -96
-588 -480
96 480 588
-589 -587
-589 -588
587 588 589
-590 22
-590 96
-22 -96 590
-591 -96
-591 -483
96 483 591
-592 -590
-592 -591
590 591 592
-593 23
-593 96
-23 -96 593
-594 -96
-594 -486
96 486 594
-595 -593
-595 -594
593 594 595
-596 24
-596 96
-24 -96 596
-597 -96
-597 -489
96 489 597
-598 -596
-598 -597
596 597 598
-599 -96
-599 -492
96 492 599
-600 -96
-600 -495
96 495 600
-601 -96
-601 -498
96 498 601
-602 -96
-602 -501
96 501 602
-603 -96
-603 -504
96 504 603
-604 -96
-604 -507
96 507 604
-605 -96
-605 -510
96 510 605
-606 -96
-606 -513
96 513 606
-607 -96
-607 -516
96 516 607
-608 -96
-608 -519
96 519 608
-609 -96
-609 -522
96 522 609
-610 -96
-610 -525
96 525 610
-611 -96
-611 526
96 -526 611
-612 -61
-612 420
61 -420 612
-613 25
-613 -612
-25 612 613
613
